\ENCODING=ISO-8859-1
\Problem name: IloCplex

Minimize
 obj1: _eta#0
Subject To
 c1:                             _eta#0 - f0(0)#1 >= 0
 c2:                             _eta#0 - f0(1)#2 >= 0
 c3:                             _eta#0 - f0(2)#3 >= 0
 c4:                             _eta#0 - f0(3)#4 >= 0
 c5:                             _eta#0 - f0(4)#5 >= 0
 c6:                             _eta#0 - f0(5)#6 >= 0
 c7:                             _eta#0 - f0(6)#7 >= 0
 c8:                             _eta#0 - f0(7)#8 >= 0
 c9:                             _eta#0 - f0(8)#9 >= 0
 c10:                            _eta#0 - f0(9)#10 >= 0
 AddConsSelectKTreeRepresentatives: y(0)#11 + y(1)#12 + y(2)#13 + y(3)#14
                                 + y(4)#15 + y(5)#16 + y(6)#17 + y(7)#18
                                 + y(8)#19 + y(9)#20  = 2
 AddConsSelectArcForRepresentatives(0): y(0)#11 + x(0)#21 + x(4)#22 + x(6)#23
                                  = 1
 AddConsSelectArcForRepresentatives(1): y(1)#12 + x(1)#24  = 1
 AddConsSelectArcForRepresentatives(2): y(2)#13 + x(3)#25 + x(8)#26  = 1
 AddConsSelectArcForRepresentatives(3): y(3)#14 + x(9)#27 + x(12)#28 + x(17)#29
                                  = 1
 AddConsSelectArcForRepresentatives(4): y(4)#15 + x(19)#30 + x(25)#31  = 1
 AddConsSelectArcForRepresentatives(5): y(5)#16 + x(5)#32 + x(7)#33 + x(13)#34
                                 + x(14)#35 + x(16)#36  = 1
 AddConsSelectArcForRepresentatives(6): y(6)#17 + x(2)#37 + x(10)#38 + x(11)#39
                                 + x(21)#40 + x(22)#41  = 1
 AddConsSelectArcForRepresentatives(7): y(7)#18 + x(24)#42  = 1
 AddConsSelectArcForRepresentatives(8): y(8)#19 + x(15)#43 + x(18)#44  = 1
 AddConsSelectArcForRepresentatives(9): y(9)#20 + x(20)#45 + x(23)#46  = 1
 AddConsFlow(0):                 f0(0)#1 - 19 x(0)#21 - 94 x(4)#22 - 49 x(6)#23
                                 + f(0)#47 + f(4)#48 + f(6)#49 - f(13)#50
                                 - f(17)#51 - f(19)#52 - f(26)#53  = 0
 AddConsFlow(1):                 f0(1)#2 - 81 x(1)#24 + f(1)#54 - f(14)#55
                                 - f(27)#56  = 0
 AddConsFlow(2):                 f0(2)#3 - 61 x(3)#25 - 88 x(8)#26 + f(3)#57
                                 + f(8)#58 - f(16)#59 - f(21)#60 - f(28)#61
                                  = 0
 AddConsFlow(3):                 f0(3)#4 - 31 x(9)#27 - 61 x(12)#28
                                 - 94 x(17)#29 - f(4)#48 + f(17)#51 + f(9)#62
                                 + f(12)#63 - f(22)#64 - f(25)#65 - f(29)#66
                                  = 0
 AddConsFlow(4):                 f0(4)#5 - 49 x(19)#30 - 61 x(25)#31 - f(6)#49
                                 + f(19)#52 - f(12)#63 + f(25)#65 - f(30)#67
                                  = 0
 AddConsFlow(5):                 f0(5)#6 - 81 x(5)#32 - 48 x(7)#33
                                 - 19 x(13)#34 - 81 x(14)#35 - 61 x(16)#36
                                 - f(0)#47 + f(13)#50 - f(1)#54 + f(14)#55
                                 - f(3)#57 + f(16)#59 + f(5)#68 + f(7)#69
                                 - f(18)#70 - f(20)#71 - f(31)#72  = 0
 AddConsFlow(6):                 f0(6)#7 - 58 x(2)#37 - 5 x(10)#38
                                 - 92 x(11)#39 - 88 x(21)#40 - 31 x(22)#41
                                 - f(8)#58 + f(21)#60 - f(9)#62 + f(22)#64
                                 + f(2)#73 + f(10)#74 + f(11)#75 - f(15)#76
                                 - f(23)#77 - f(24)#78 - f(32)#79  = 0
 AddConsFlow(7):                 f0(7)#8 - 92 x(24)#42 - f(11)#75 + f(24)#78
                                 - f(33)#80  = 0
 AddConsFlow(8):                 f0(8)#9 - 58 x(15)#43 - 81 x(18)#44 - f(5)#68
                                 + f(18)#70 - f(2)#73 + f(15)#76 - f(34)#81
                                  = 0
 AddConsFlow(9):                 f0(9)#10 - 48 x(20)#45 - 5 x(23)#46 - f(7)#69
                                 + f(20)#71 - f(10)#74 + f(23)#77 - f(35)#82
                                  = 0
 c32:                            - 19 x(0)#21 + f(0)#47 >= 0
 AddConsBoundFByX(0):            - 210 x(0)#21 + f(0)#47 <= 0
 c34:                            - 81 x(1)#24 + f(1)#54 >= 0
 AddConsBoundFByX(1):            - 210 x(1)#24 + f(1)#54 <= 0
 c36:                            - 58 x(2)#37 + f(2)#73 >= 0
 AddConsBoundFByX(2):            - 210 x(2)#37 + f(2)#73 <= 0
 c38:                            - 61 x(3)#25 + f(3)#57 >= 0
 AddConsBoundFByX(3):            - 210 x(3)#25 + f(3)#57 <= 0
 c40:                            - 94 x(4)#22 + f(4)#48 >= 0
 AddConsBoundFByX(4):            - 210 x(4)#22 + f(4)#48 <= 0
 c42:                            - 81 x(5)#32 + f(5)#68 >= 0
 AddConsBoundFByX(5):            - 210 x(5)#32 + f(5)#68 <= 0
 c44:                            - 49 x(6)#23 + f(6)#49 >= 0
 AddConsBoundFByX(6):            - 210 x(6)#23 + f(6)#49 <= 0
 c46:                            - 48 x(7)#33 + f(7)#69 >= 0
 AddConsBoundFByX(7):            - 210 x(7)#33 + f(7)#69 <= 0
 c48:                            - 88 x(8)#26 + f(8)#58 >= 0
 AddConsBoundFByX(8):            - 210 x(8)#26 + f(8)#58 <= 0
 c50:                            - 31 x(9)#27 + f(9)#62 >= 0
 AddConsBoundFByX(9):            - 210 x(9)#27 + f(9)#62 <= 0
 c52:                            - 5 x(10)#38 + f(10)#74 >= 0
 AddConsBoundFByX(10):           - 210 x(10)#38 + f(10)#74 <= 0
 c54:                            - 92 x(11)#39 + f(11)#75 >= 0
 AddConsBoundFByX(11):           - 210 x(11)#39 + f(11)#75 <= 0
 c56:                            - 61 x(12)#28 + f(12)#63 >= 0
 AddConsBoundFByX(12):           - 210 x(12)#28 + f(12)#63 <= 0
 c58:                            - 19 x(13)#34 + f(13)#50 >= 0
 AddConsBoundFByX(13):           - 210 x(13)#34 + f(13)#50 <= 0
 c60:                            - 81 x(14)#35 + f(14)#55 >= 0
 AddConsBoundFByX(14):           - 210 x(14)#35 + f(14)#55 <= 0
 c62:                            - 58 x(15)#43 + f(15)#76 >= 0
 AddConsBoundFByX(15):           - 210 x(15)#43 + f(15)#76 <= 0
 c64:                            - 61 x(16)#36 + f(16)#59 >= 0
 AddConsBoundFByX(16):           - 210 x(16)#36 + f(16)#59 <= 0
 c66:                            - 94 x(17)#29 + f(17)#51 >= 0
 AddConsBoundFByX(17):           - 210 x(17)#29 + f(17)#51 <= 0
 c68:                            - 81 x(18)#44 + f(18)#70 >= 0
 AddConsBoundFByX(18):           - 210 x(18)#44 + f(18)#70 <= 0
 c70:                            - 49 x(19)#30 + f(19)#52 >= 0
 AddConsBoundFByX(19):           - 210 x(19)#30 + f(19)#52 <= 0
 c72:                            - 48 x(20)#45 + f(20)#71 >= 0
 AddConsBoundFByX(20):           - 210 x(20)#45 + f(20)#71 <= 0
 c74:                            - 88 x(21)#40 + f(21)#60 >= 0
 AddConsBoundFByX(21):           - 210 x(21)#40 + f(21)#60 <= 0
 c76:                            - 31 x(22)#41 + f(22)#64 >= 0
 AddConsBoundFByX(22):           - 210 x(22)#41 + f(22)#64 <= 0
 c78:                            - 5 x(23)#46 + f(23)#77 >= 0
 AddConsBoundFByX(23):           - 210 x(23)#46 + f(23)#77 <= 0
 c80:                            - 92 x(24)#42 + f(24)#78 >= 0
 AddConsBoundFByX(24):           - 210 x(24)#42 + f(24)#78 <= 0
 c82:                            - 61 x(25)#31 + f(25)#65 >= 0
 AddConsBoundFByX(25):           - 210 x(25)#31 + f(25)#65 <= 0
 AddConsBoundF0ByY(0):           f0(0)#1 - 210 y(0)#11 <= 0
 AddConsBoundF0ByY(1):           f0(1)#2 - 210 y(1)#12 <= 0
 AddConsBoundF0ByY(2):           f0(2)#3 - 210 y(2)#13 <= 0
 AddConsBoundF0ByY(3):           f0(3)#4 - 210 y(3)#14 <= 0
 AddConsBoundF0ByY(4):           f0(4)#5 - 210 y(4)#15 <= 0
 AddConsBoundF0ByY(5):           f0(5)#6 - 210 y(5)#16 <= 0
 AddConsBoundF0ByY(6):           f0(6)#7 - 210 y(6)#17 <= 0
 AddConsBoundF0ByY(7):           f0(7)#8 - 210 y(7)#18 <= 0
 AddConsBoundF0ByY(8):           f0(8)#9 - 210 y(8)#19 <= 0
 AddConsBoundF0ByY(9):           f0(9)#10 - 210 y(9)#20 <= 0
 c94:                            y(3)#14 + x(17)#29 <= 1
 c95:                            y(4)#15 + x(19)#30 <= 1
 c96:                            y(4)#15 + x(25)#31 <= 1
 c97:                            y(5)#16 + x(13)#34 <= 1
 c98:                            y(5)#16 + x(14)#35 <= 1
 c99:                            y(5)#16 + x(16)#36 <= 1
 c100:                           y(6)#17 + x(21)#40 <= 1
 c101:                           y(6)#17 + x(22)#41 <= 1
 c102:                           y(7)#18 + x(24)#42 <= 1
 c103:                           y(8)#19 + x(15)#43 <= 1
 c104:                           y(8)#19 + x(18)#44 <= 1
 c105:                           y(9)#20 + x(20)#45 <= 1
 c106:                           y(9)#20 + x(23)#46 <= 1
 c107:                           - f0(0)#1 + theta(0,0)#83 + theta(0,1)#84  = 0
 c108:                           - f0(1)#2 + theta(1,0)#85 + theta(1,1)#86  = 0
 c109:                           - f0(2)#3 + theta(2,0)#87 + theta(2,1)#88  = 0
 c110:                           - f0(3)#4 + theta(3,0)#89 + theta(3,1)#90  = 0
 c111:                           - f0(4)#5 + theta(4,0)#91 + theta(4,1)#92  = 0
 c112:                           - f0(5)#6 + theta(5,0)#93 + theta(5,1)#94  = 0
 c113:                           - f0(6)#7 + theta(6,0)#95 + theta(6,1)#96  = 0
 c114:                           - f0(7)#8 + theta(7,0)#97 + theta(7,1)#98  = 0
 c115:                           - f0(8)#9 + theta(8,0)#99 + theta(8,1)#100
                                  = 0
 c116:                           - f0(9)#10 + theta(9,0)#101 + theta(9,1)#102
                                  = 0
 c117:                           - _eta#0 + theta(0,0)#83 + theta(1,0)#85
                                 + theta(2,0)#87 + theta(3,0)#89
                                 + theta(4,0)#91 + theta(5,0)#93
                                 + theta(6,0)#95 + theta(7,0)#97
                                 + theta(8,0)#99 + theta(9,0)#101 <= 0
 c118:                           - _eta#0 + theta(0,1)#84 + theta(1,1)#86
                                 + theta(2,1)#88 + theta(3,1)#90
                                 + theta(4,1)#92 + theta(5,1)#94
                                 + theta(6,1)#96 + theta(7,1)#98
                                 + theta(8,1)#100 + theta(9,1)#102 <= 0
Bounds
 0 <= y(0)#11 <= 1
 0 <= y(1)#12 <= 1
 0 <= y(2)#13 <= 1
 0 <= y(3)#14 <= 1
 0 <= y(4)#15 <= 1
 0 <= y(5)#16 <= 1
 0 <= y(6)#17 <= 1
 0 <= y(7)#18 <= 1
 0 <= y(8)#19 <= 1
 0 <= y(9)#20 <= 1
 0 <= x(0)#21 <= 1
 0 <= x(4)#22 <= 1
 0 <= x(6)#23 <= 1
 0 <= x(1)#24 <= 1
 0 <= x(3)#25 <= 1
 0 <= x(8)#26 <= 1
 0 <= x(9)#27 <= 1
 0 <= x(12)#28 <= 1
 0 <= x(17)#29 <= 1
 0 <= x(19)#30 <= 1
 0 <= x(25)#31 <= 1
 0 <= x(5)#32 <= 1
 0 <= x(7)#33 <= 1
 0 <= x(13)#34 <= 1
 0 <= x(14)#35 <= 1
 0 <= x(16)#36 <= 1
 0 <= x(2)#37 <= 1
 0 <= x(10)#38 <= 1
 0 <= x(11)#39 <= 1
 0 <= x(21)#40 <= 1
 0 <= x(22)#41 <= 1
 0 <= x(24)#42 <= 1
 0 <= x(15)#43 <= 1
 0 <= x(18)#44 <= 1
 0 <= x(20)#45 <= 1
 0 <= x(23)#46 <= 1
Binaries
 y(0)#11  y(1)#12  y(2)#13  y(3)#14  y(4)#15  y(5)#16  y(6)#17  y(7)#18 
 y(8)#19  y(9)#20  x(0)#21  x(4)#22  x(6)#23  x(1)#24  x(3)#25  x(8)#26 
 x(9)#27  x(12)#28  x(17)#29  x(19)#30  x(25)#31  x(5)#32  x(7)#33  x(13)#34 
 x(14)#35  x(16)#36  x(2)#37  x(10)#38  x(11)#39  x(21)#40  x(22)#41  x(24)#42 
 x(15)#43  x(18)#44  x(20)#45  x(23)#46 
End
